NAME 
ROWS
 N  OBJ
 L  R0      
 L  R1      
 L  R2      
 L  R3      
 E  R4      
COLUMNS
    MARKER    'MARKER'                 'INTORG'
    I0(5)     OBJ       -820
    I0(5)     R0        -845
    I0(5)     R1        -8
    I0(5)     R2        -679
    I0(5)     R3        -718
    I0(5)     R4        531
    I1(5)     OBJ       -507
    I1(5)     R0        -120
    I1(5)     R1        -445
    I1(5)     R2        -618
    I1(5)     R3        -329
    I1(5)     R4        249
    I2(5)     OBJ       -89
    I2(5)     R0        -58
    I2(5)     R1        -600
    I2(5)     R2        -866
    I2(5)     R3        -567
    I2(5)     R4        191
    I3(5)     OBJ       -786
    I3(5)     R0        -286
    I3(5)     R1        -29
    I3(5)     R2        -154
    I3(5)     R3        -900
    I3(5)     R4        39
    I4(5)     OBJ       -342
    I4(5)     R0        -626
    I4(5)     R1        -482
    I4(5)     R2        -765
    I4(5)     R3        -520
    I4(5)     R4        725
    I5(5)     OBJ       -812
    I5(5)     R0        -608
    I5(5)     R1        -730
    I5(5)     R2        -95
    I5(5)     R3        -956
    I5(5)     R4        469
    I6(5)     OBJ       -919
    I6(5)     R0        -321
    I6(5)     R1        -377
    I6(5)     R2        -971
    I6(5)     R3        -709
    I6(5)     R4        29
    I7(5)     OBJ       -278
    I7(5)     R0        -752
    I7(5)     R1        -207
    I7(5)     R2        -723
    I7(5)     R3        -318
    I7(5)     R4        930
    I8(5)     OBJ       -195
    I8(5)     R0        -624
    I8(5)     R1        -259
    I8(5)     R2        -242
    I8(5)     R3        -665
    I8(5)     R4        124
    I9(5)     OBJ       -861
    I9(5)     R0        -970
    I9(5)     R1        -63
    I9(5)     R2        -65
    I9(5)     R3        -268
    I9(5)     R4        224
    I10(5)    OBJ       -351
    I10(5)    R0        -59
    I10(5)    R1        -134
    I10(5)    R2        -877
    I10(5)    R3        -740
    I10(5)    R4        394
    I11(5)    OBJ       -447
    I11(5)    R0        -444
    I11(5)    R1        -104
    I11(5)    R2        -250
    I11(5)    R3        -343
    I11(5)    R4        841
    I12(5)    OBJ       -21
    I12(5)    R0        -476
    I12(5)    R1        -183
    I12(5)    R2        -509
    I12(5)    R3        -885
    I12(5)    R4        553
    I13(5)    OBJ       -38
    I13(5)    R0        -147
    I13(5)    R1        -191
    I13(5)    R2        -477
    I13(5)    R3        -606
    I13(5)    R4        961
    I14(5)    OBJ       -130
    I14(5)    R0        -229
    I14(5)    R1        -389
    I14(5)    R2        -278
    I14(5)    R3        -497
    I14(5)    R4        741
    I15(5)    OBJ       -349
    I15(5)    R0        -817
    I15(5)    R1        -809
    I15(5)    R2        -990
    I15(5)    R3        -650
    I15(5)    R4        72
    I16(5)    OBJ       -725
    I16(5)    R0        -959
    I16(5)    R1        -799
    I16(5)    R2        -206
    I16(5)    R3        -700
    I16(5)    R4        916
    I17(5)    OBJ       -530
    I17(5)    R0        -148
    I17(5)    R1        -709
    I17(5)    R2        -655
    I17(5)    R3        -467
    I17(5)    R4        449
    I18(5)    OBJ       -687
    I18(5)    R0        -94
    I18(5)    R1        -560
    I18(5)    R2        -196
    I18(5)    R3        -373
    I18(5)    R4        390
    I19(5)    OBJ       -927
    I19(5)    R0        -154
    I19(5)    R1        -423
    I19(5)    R2        -464
    I19(5)    R3        -942
    I19(5)    R4        581
    I20(1)    R4        1
    MARKER    'MARKER'                 'INTEND'
RHS
    RHS1      R0        -6063
    RHS1      R1        -5945
    RHS1      R2        -7078
    RHS1      R3        -8984
    RHS1      R4        4704
BOUNDS
 UP BND1      I0(5)     1
 UP BND1      I1(5)     1
 UP BND1      I2(5)     1
 UP BND1      I3(5)     1
 UP BND1      I4(5)     1
 UP BND1      I5(5)     1
 UP BND1      I6(5)     1
 UP BND1      I7(5)     1
 UP BND1      I8(5)     1
 UP BND1      I9(5)     1
 UP BND1      I10(5)    1
 UP BND1      I11(5)    1
 UP BND1      I12(5)    1
 UP BND1      I13(5)    1
 UP BND1      I14(5)    1
 UP BND1      I15(5)    1
 UP BND1      I16(5)    1
 UP BND1      I17(5)    1
 UP BND1      I18(5)    1
 UP BND1      I19(5)    1
 LI BND1      I20(1)    0
ENDATA
